Minimize
	value: tt

Subject to
tt + 2000 s_1_1 > 0
tt - t_1_1 - 2000.000000 s_1_1 > -1994.405800
tt + 2000 s_2_1 > 0
tt - t_2_1 - 2000.000000 s_2_1 > -1989.452300
tt + 2000 s_1_2 > 0
tt - t_1_2 - 2000.000000 s_1_2 > -1989.182300
tt + 2000 s_2_2 > 0
tt - t_2_2 - 2000.000000 s_2_2 > -1981.378700
tt + 2000 s_1_3 > 0
tt - t_1_3 - 2000.000000 s_1_3 > -1996.244500
tt + 2000 s_2_3 > 0
tt - t_2_3 - 2000.000000 s_2_3 > -1993.691500
tt + 2000 s_1_4 > 0
tt - t_1_4 - 2000.000000 s_1_4 > -1994.114600
tt + 2000 s_2_4 > 0
tt - t_2_4 - 2000.000000 s_2_4 > -1989.357700
tt + 2000 s_1_5 > 0
tt - t_1_5 - 2120.859570 s_1_5 + 120.859570 s_1_2 > -1998.912500
tt + 2000 s_2_5 > 0
tt - t_2_5 - 2241.719140 s_2_5 + 241.719140 s_2_2 > -1997.785000
s_1_1 + s_2_1  = 1
s_1_2 + s_2_2  = 1
s_1_3 + s_2_3  = 1
s_1_4 + s_2_4  = 1
s_1_5 + s_2_5  = 1
t_1_1 - t_1_2 + 2000.000000 u_1_1_2 > 10.817700
t_1_2 - t_1_1 - 2000.000000 u_1_1_2 > -1994.405800
t_2_1 - t_2_2 + 2000.000000 u_2_1_2 > 18.621300
t_2_2 - t_2_1 - 2000.000000 u_2_1_2 > -1989.452300
t_1_1 - t_1_3 + 2000.000000 u_1_1_3 > 3.755500
t_1_3 - t_1_1 - 2000.000000 u_1_1_3 > -1994.405800
t_2_1 - t_2_3 + 2000.000000 u_2_1_3 > 6.308500
t_2_3 - t_2_1 - 2000.000000 u_2_1_3 > -1989.452300
t_1_1 - t_1_4 + 2000.000000 u_1_1_4 > 5.885400
t_1_4 - t_1_1 - 2000.000000 u_1_1_4 > -1994.405800
t_2_1 - t_2_4 + 2000.000000 u_2_1_4 > 10.642300
t_2_4 - t_2_1 - 2000.000000 u_2_1_4 > -1989.452300
t_1_5 - t_1_1 - 2000.000000 s_1_1 > -1987.700550
t_1_5 - t_2_1 - 2000.000000 s_2_1 > -1976.041800
t_2_5 - t_1_1 - 2000.000000 s_1_1 > -1987.700550
t_2_5 - t_2_1 - 2000.000000 s_2_1 > -1976.041800
t_1_2 - t_1_1 + 2000.000000 u_1_2_1 > 5.594200
t_1_1 - t_1_2 - 2000.000000 u_1_2_1 > -1989.182300
t_2_2 - t_2_1 + 2000.000000 u_2_2_1 > 10.547700
t_2_1 - t_2_2 - 2000.000000 u_2_2_1 > -1981.378700
t_1_2 - t_1_3 + 2000.000000 u_1_2_3 > 3.755500
t_1_3 - t_1_2 - 2000.000000 u_1_2_3 > -1989.182300
t_2_2 - t_2_3 + 2000.000000 u_2_2_3 > 6.308500
t_2_3 - t_2_2 - 2000.000000 u_2_2_3 > -1981.378700
t_1_2 - t_1_4 + 2000.000000 u_1_2_4 > 5.885400
t_1_4 - t_1_2 - 2000.000000 u_1_2_4 > -1989.182300
t_2_2 - t_2_4 + 2000.000000 u_2_2_4 > 10.642300
t_2_4 - t_2_2 - 2000.000000 u_2_2_4 > -1981.378700
t_1_5 - t_1_2 - 2000.000000 s_1_2 > -1982.477050
t_1_5 - t_2_2 - 2000.000000 s_2_2 > -1967.968200
t_2_5 - t_1_2 - 2000.000000 s_1_2 > -1982.477050
t_2_5 - t_2_2 - 2000.000000 s_2_2 > -1967.968200
t_1_3 - t_1_1 + 2000.000000 u_1_3_1 > 5.594200
t_1_1 - t_1_3 - 2000.000000 u_1_3_1 > -1996.244500
t_2_3 - t_2_1 + 2000.000000 u_2_3_1 > 10.547700
t_2_1 - t_2_3 - 2000.000000 u_2_3_1 > -1993.691500
t_1_3 - t_1_2 + 2000.000000 u_1_3_2 > 10.817700
t_1_2 - t_1_3 - 2000.000000 u_1_3_2 > -1996.244500
t_2_3 - t_2_2 + 2000.000000 u_2_3_2 > 18.621300
t_2_2 - t_2_3 - 2000.000000 u_2_3_2 > -1993.691500
t_1_3 - t_1_4 + 2000.000000 u_1_3_4 > 5.885400
t_1_4 - t_1_3 - 2000.000000 u_1_3_4 > -1996.244500
t_2_3 - t_2_4 + 2000.000000 u_2_3_4 > 10.642300
t_2_4 - t_2_3 - 2000.000000 u_2_3_4 > -1993.691500
t_1_5 - t_1_3 - 2000.000000 s_1_3 > -1989.539250
t_1_5 - t_2_3 - 2000.000000 s_2_3 > -1980.281000
t_2_5 - t_1_3 - 2000.000000 s_1_3 > -1989.539250
t_2_5 - t_2_3 - 2000.000000 s_2_3 > -1980.281000
t_1_4 - t_1_1 + 2000.000000 u_1_4_1 > 5.594200
t_1_1 - t_1_4 - 2000.000000 u_1_4_1 > -1994.114600
t_2_4 - t_2_1 + 2000.000000 u_2_4_1 > 10.547700
t_2_1 - t_2_4 - 2000.000000 u_2_4_1 > -1989.357700
t_1_4 - t_1_2 + 2000.000000 u_1_4_2 > 10.817700
t_1_2 - t_1_4 - 2000.000000 u_1_4_2 > -1994.114600
t_2_4 - t_2_2 + 2000.000000 u_2_4_2 > 18.621300
t_2_2 - t_2_4 - 2000.000000 u_2_4_2 > -1989.357700
t_1_4 - t_1_3 + 2000.000000 u_1_4_3 > 3.755500
t_1_3 - t_1_4 - 2000.000000 u_1_4_3 > -1994.114600
t_2_4 - t_2_3 + 2000.000000 u_2_4_3 > 6.308500
t_2_3 - t_2_4 - 2000.000000 u_2_4_3 > -1989.357700
t_1_5 - t_1_4 - 2000.000000 s_1_4 > -1987.409350
t_1_5 - t_2_4 - 2000.000000 s_2_4 > -1975.947200
t_2_5 - t_1_4 - 2000.000000 s_1_4 > -1987.409350
t_2_5 - t_2_4 - 2000.000000 s_2_4 > -1975.947200
t_1_5 - t_1_1 - 2000.000000 s_1_1 > -1987.700550
t_1_5 - t_2_1 - 2000.000000 s_2_1 > -1976.041800
t_2_5 - t_1_1 - 2000.000000 s_1_1 > -1987.700550
t_2_5 - t_2_1 - 2000.000000 s_2_1 > -1976.041800
t_1_5 - t_1_2 - 2000.000000 s_1_2 > -1982.477050
t_1_5 - t_2_2 - 2000.000000 s_2_2 > -1967.968200
t_2_5 - t_1_2 - 2000.000000 s_1_2 > -1982.477050
t_2_5 - t_2_2 - 2000.000000 s_2_2 > -1967.968200
t_1_5 - t_1_3 - 2000.000000 s_1_3 > -1989.539250
t_1_5 - t_2_3 - 2000.000000 s_2_3 > -1980.281000
t_2_5 - t_1_3 - 2000.000000 s_1_3 > -1989.539250
t_2_5 - t_2_3 - 2000.000000 s_2_3 > -1980.281000
t_1_5 - t_1_4 - 2000.000000 s_1_4 > -1987.409350
t_1_5 - t_2_4 - 2000.000000 s_2_4 > -1975.947200
t_2_5 - t_1_4 - 2000.000000 s_1_4 > -1987.409350
t_2_5 - t_2_4 - 2000.000000 s_2_4 > -1975.947200
Binary
s_1_1
s_2_1
s_1_2
s_2_2
s_1_3
s_2_3
s_1_4
s_2_4
s_1_5
s_2_5
u_1_1_2
u_2_1_2
u_1_1_3
u_2_1_3
u_1_1_4
u_2_1_4
u_1_2_1
u_2_2_1
u_1_2_3
u_2_2_3
u_1_2_4
u_2_2_4
u_1_3_1
u_2_3_1
u_1_3_2
u_2_3_2
u_1_3_4
u_2_3_4
u_1_4_1
u_2_4_1
u_1_4_2
u_2_4_2
u_1_4_3
u_2_4_3

End
